
Gurobi 8.1.1 (mac64) logging started Sat May 30 23:43:22 2020

Changed value of parameter LogFile to gurobi_logs/2020-05-30_23:43:16-rproblem7_mode=feasibility_sdp_reduce.log
   Prev: gurobi.log  Default: 
Parameter MIPFocus unchanged
   Value: 0  Min: 0  Max: 3  Default: 0
Parameter SolutionLimit unchanged
   Value: 2000000000  Min: 1  Max: 2000000000  Default: 2000000000
Parameter LogToConsole unchanged
   Value: 1  Min: 0  Max: 1  Default: 1
Changed value of parameter TimeLimit to 10000.0
   Prev: 1e+100  Min: 0.0  Max: 1e+100  Default: 1e+100
Optimize a model with 15328 rows, 15790 columns and 38878 nonzeros
Variable types: 178 continuous, 15612 integer (462 binary)
Coefficient statistics:
  Matrix range     [8e-01, 1e+03]
  Objective range  [2e-01, 5e+00]
  Bounds range     [1e+00, 1e+00]
  RHS range        [1e+00, 1e+01]
Presolve removed 15328 rows and 15790 columns
Presolve time: 0.02s
Presolve: All rows and columns removed

Explored 0 nodes (0 simplex iterations) in 0.02 seconds
Thread count was 1 (of 8 available processors)

Solution count 1: 648 

Optimal solution found (tolerance 1.00e-04)
Best objective 6.480000000000e+02, best bound 6.480000000000e+02, gap 0.0000%

Gurobi 8.1.1 (mac64) logging started Sat May 30 23:43:28 2020

Changed value of parameter LogFile to gurobi_logs/2020-05-30_23:43:16-rproblem7_mode=feasibility_sdp_reduce.log
   Prev: gurobi.log  Default: 
Parameter MIPFocus unchanged
   Value: 0  Min: 0  Max: 3  Default: 0
Parameter SolutionLimit unchanged
   Value: 2000000000  Min: 1  Max: 2000000000  Default: 2000000000
Parameter LogToConsole unchanged
   Value: 1  Min: 0  Max: 1  Default: 1
Changed value of parameter TimeLimit to 10000.0
   Prev: 1e+100  Min: 0.0  Max: 1e+100  Default: 1e+100
Optimize a model with 216864 rows, 133002 columns and 3871494 nonzeros
Variable types: 18 continuous, 132984 integer (118296 binary)
Coefficient statistics:
  Matrix range     [2e-01, 2e+02]
  Objective range  [1e+00, 1e+00]
  Bounds range     [1e+00, 1e+00]
  RHS range        [1e+00, 4e+02]
Presolve removed 187602 rows and 101718 columns (presolve time = 5s) ...
Presolve removed 187602 rows and 101718 columns
Presolve time: 6.11s
Presolved: 29262 rows, 31284 columns, 300168 nonzeros
Variable types: 0 continuous, 31284 integer (31284 binary)

Deterministic concurrent LP optimizer: primal and dual simplex
Showing first log only...


Root simplex log...

Iteration    Objective       Primal Inf.    Dual Inf.      Time
       0    2.9875000e+04   2.158375e+03   3.490815e+09      7s
Concurrent spin time: 0.10s

Solved with dual simplex

Root relaxation: objective 3.087600e+04, 4538 iterations, 0.70 seconds

    Nodes    |    Current Node    |     Objective Bounds      |     Work
 Expl Unexpl |  Obj  Depth IntInf | Incumbent    BestBd   Gap | It/Node Time

H    0     0                    30876.000000    0.00000   100%     -    7s
     0     0          -    0      30876.0000 30876.0000  0.00%     -    7s

Explored 0 nodes (7324 simplex iterations) in 7.93 seconds
Thread count was 8 (of 8 available processors)

Solution count 1: 30876 

Optimal solution found (tolerance 1.00e-04)
Best objective 3.087600000000e+04, best bound 3.087600000000e+04, gap 0.0000%
